certificates/rado_a7_c279_N40.cnf
c Rad2 upper bound instance: x1 + 7*x2 - x3 = 279, interval [1,40]
p cnf 40 278
1 2 40 0
-1 -2 -40 0
2 3 40 0
-2 -3 -40 0
3 4 40 0
-3 -4 -40 0
4 5 40 0
-4 -5 -40 0
5 6 40 0
-5 -6 -40 0
6 7 40 0
-6 -7 -40 0
1 7 39 0
-1 -7 -39 0
7 8 40 0
-7 -8 -40 0
2 8 39 0
-2 -8 -39 0
8 9 40 0
-8 -9 -40 0
3 9 39 0
-3 -9 -39 0
9 10 40 0
-9 -10 -40 0
4 10 39 0
-4 -10 -39 0
10 11 40 0
-10 -11 -40 0
5 11 39 0
-5 -11 -39 0
11 12 40 0
-11 -12 -40 0
6 12 39 0
-6 -12 -39 0
12 13 40 0
-12 -13 -40 0
7 13 39 0
-7 -13 -39 0
13 14 40 0
-13 -14 -40 0
1 14 38 0
-1 -14 -38 0
8 14 39 0
-8 -14 -39 0
14 15 40 0
-14 -15 -40 0
2 15 38 0
-2 -15 -38 0
9 15 39 0
-9 -15 -39 0
15 16 40 0
-15 -16 -40 0
3 16 38 0
-3 -16 -38 0
10 16 39 0
-10 -16 -39 0
16 17 40 0
-16 -17 -40 0
4 17 38 0
-4 -17 -38 0
11 17 39 0
-11 -17 -39 0
17 18 40 0
-17 -18 -40 0
5 18 38 0
-5 -18 -38 0
12 18 39 0
-12 -18 -39 0
18 19 40 0
-18 -19 -40 0
6 19 38 0
-6 -19 -38 0
13 19 39 0
-13 -19 -39 0
19 20 40 0
-19 -20 -40 0
7 20 38 0
-7 -20 -38 0
14 20 39 0
-14 -20 -39 0
20 21 40 0
-20 -21 -40 0
1 21 37 0
-1 -21 -37 0
8 21 38 0
-8 -21 -38 0
15 21 39 0
-15 -21 -39 0
21 22 40 0
-21 -22 -40 0
2 22 37 0
-2 -22 -37 0
9 22 38 0
-9 -22 -38 0
16 22 39 0
-16 -22 -39 0
22 23 40 0
-22 -23 -40 0
3 23 37 0
-3 -23 -37 0
10 23 38 0
-10 -23 -38 0
17 23 39 0
-17 -23 -39 0
23 24 40 0
-23 -24 -40 0
4 24 37 0
-4 -24 -37 0
11 24 38 0
-11 -24 -38 0
18 24 39 0
-18 -24 -39 0
24 25 40 0
-24 -25 -40 0
5 25 37 0
-5 -25 -37 0
12 25 38 0
-12 -25 -38 0
19 25 39 0
-19 -25 -39 0
25 26 40 0
-25 -26 -40 0
6 26 37 0
-6 -26 -37 0
13 26 38 0
-13 -26 -38 0
20 26 39 0
-20 -26 -39 0
26 27 40 0
-26 -27 -40 0
7 27 37 0
-7 -27 -37 0
14 27 38 0
-14 -27 -38 0
21 27 39 0
-21 -27 -39 0
27 28 40 0
-27 -28 -40 0
1 28 36 0
-1 -28 -36 0
8 28 37 0
-8 -28 -37 0
15 28 38 0
-15 -28 -38 0
22 28 39 0
-22 -28 -39 0
28 29 40 0
-28 -29 -40 0
2 29 36 0
-2 -29 -36 0
9 29 37 0
-9 -29 -37 0
16 29 38 0
-16 -29 -38 0
23 29 39 0
-23 -29 -39 0
29 30 40 0
-29 -30 -40 0
3 30 36 0
-3 -30 -36 0
10 30 37 0
-10 -30 -37 0
17 30 38 0
-17 -30 -38 0
24 30 39 0
-24 -30 -39 0
30 31 40 0
-30 -31 -40 0
4 31 36 0
-4 -31 -36 0
11 31 37 0
-11 -31 -37 0
18 31 38 0
-18 -31 -38 0
25 31 39 0
-25 -31 -39 0
31 32 40 0
-31 -32 -40 0
5 32 36 0
-5 -32 -36 0
12 32 37 0
-12 -32 -37 0
19 32 38 0
-19 -32 -38 0
26 32 39 0
-26 -32 -39 0
32 33 40 0
-32 -33 -40 0
6 33 36 0
-6 -33 -36 0
13 33 37 0
-13 -33 -37 0
20 33 38 0
-20 -33 -38 0
27 33 39 0
-27 -33 -39 0
33 34 40 0
-33 -34 -40 0
7 34 36 0
-7 -34 -36 0
14 34 37 0
-14 -34 -37 0
21 34 38 0
-21 -34 -38 0
28 34 39 0
-28 -34 -39 0
34 35 40 0
-34 -35 -40 0
1 35 0
-1 -35 0
8 35 36 0
-8 -35 -36 0
15 35 37 0
-15 -35 -37 0
22 35 38 0
-22 -35 -38 0
29 35 39 0
-29 -35 -39 0
35 36 40 0
-35 -36 -40 0
2 35 36 0
-2 -35 -36 0
9 36 0
-9 -36 0
16 36 37 0
-16 -36 -37 0
23 36 38 0
-23 -36 -38 0
30 36 39 0
-30 -36 -39 0
36 37 40 0
-36 -37 -40 0
3 35 37 0
-3 -35 -37 0
10 36 37 0
-10 -36 -37 0
17 37 0
-17 -37 0
24 37 38 0
-24 -37 -38 0
31 37 39 0
-31 -37 -39 0
37 38 40 0
-37 -38 -40 0
4 35 38 0
-4 -35 -38 0
11 36 38 0
-11 -36 -38 0
18 37 38 0
-18 -37 -38 0
25 38 0
-25 -38 0
32 38 39 0
-32 -38 -39 0
38 39 40 0
-38 -39 -40 0
5 35 39 0
-5 -35 -39 0
12 36 39 0
-12 -36 -39 0
19 37 39 0
-19 -37 -39 0
26 38 39 0
-26 -38 -39 0
33 39 0
-33 -39 0
39 40 0
-39 -40 0
6 35 40 0
-6 -35 -40 0
13 36 40 0
-13 -36 -40 0
20 37 40 0
-20 -37 -40 0
27 38 40 0
-27 -38 -40 0
34 39 40 0
-34 -39 -40 0
