certificates/rado_a7_c279_N40.drat
-40 0
39 0
-33 0
32 0
34 0
-26 0
-38 0
-28 0
25 0
13 0
27 0
37 0
20 0
15 0
29 0
-5 0
-19 0
-31 0
-7 0
-21 0
-17 0
-14 0
-12 0
-9 0
-35 0
-23 0
4 0
6 0
18 0
30 0
8 0
22 0
16 0
1 0
11 0
10 0
36 0
24 0
0
